Tried aggregator 1 time.
MIP Presolve eliminated 59 rows and 36 columns.
Reduced MIP has 25 rows, 49 columns, and 144 nonzeros.
Reduced MIP has 0 binaries, 0 generals, 0 SOSs, and 0 indicators.
Probing time =    0.00 sec.
Tried aggregator 2 times.
Aggregator did 12 substitutions.
Reduced MIP has 13 rows, 37 columns, and 120 nonzeros.
Reduced MIP has 0 binaries, 0 generals, 0 SOSs, and 0 indicators.
Presolve time =    0.00 sec.
Probing time =    0.00 sec.
MIP emphasis: balance optimality and feasibility.
MIP search method: dynamic search.
Parallel mode: none, using 1 thread.
Root relaxation solution time =    0.00 sec.

        Nodes                                         Cuts/
   Node  Left     Objective  IInf  Best Integer    Best Bound    ItCnt     Gap

*     0     0      integral     0       16.6667       16.6667       13    0.00%
Elapsed real time =   0.00 sec. (tree size =  0.00 MB, solutions = 1)

Root node processing (before b&c):
  Real time             =    0.00
Sequential b&c:
  Real time             =    0.00
                          -------
Total (root+branch&cut) =    0.00 sec.
Solution status 101.
Objective value 16.66666667

Elapsed time : 0.000 
